n_res = 4;
rc = [ 11, 17, 16, 15 ];
n_tasks = 30;
d = [ 4, 4, 8, 2, 7, 4, 1, 9, 8, 5, 10, 10, 10, 4, 3, 2, 4, 7, 5, 7, 6, 5, 10, 1, 2, 1, 1, 10, 8, 3 ];
rr = [| 11, 11, 11, 11, 11, 11, 11, 11, 11, 11, 11, 11, 11, 11, 11, 11, 11, 11, 11, 11, 11, 11, 11, 11, 11, 11, 11, 11, 11, 11
      | 17, 17, 17, 17, 17, 17, 17, 17, 17, 17, 17, 17, 17, 17, 17, 17, 17, 17, 17, 17, 17, 17, 17, 17, 17, 17, 17, 17, 17, 17
      | 16, 16, 16, 16, 16, 16, 16, 16, 16, 16, 16, 16, 16, 16, 16, 16, 16, 16, 16, 16, 16, 16, 16, 16, 16, 16, 16, 16, 16, 16
      | 15, 15, 15, 15, 15, 15, 15, 15, 15, 15, 15, 15, 15, 15, 15, 15, 15, 15, 15, 15, 15, 15, 15, 15, 15, 15, 15, 15, 15, 15|];
suc = [ { 4, 8, 23 },
       { 7, 13, 22 },
       { 6, 14 },
       { 5, 10 },
       { 16, 18 },
       { 9 },
       { 28 },
       { 10, 12, 19 },
       { 17, 26 },
       { 11, 20, 21 },
       { 24 },
       { 15 },
       { 19 },
       { 22 },
       { 18 },
       { 20, 22 },
       { 25 },
       { 29 },
       { 29 },
       { 27 },
       { 24 },
       { 25, 26 },
       { 29 },
       { 25 },
       { 30 },
       { 27, 30 },
       { 28 },
       {  },
       {  },
       {  } ];
